25
    1     8     8
    2     6     6
    3    20    20
    4    15    15
    5    18    18
    6     8     8
    7    19    19
    8     4     4
    9     8     8
   10    10    10
   11     6     6
   12     1     1
   13     9     9
   14     6     6
   15     4     4
   16     4     4
   17    13    13
   18     3     3
   19    10    10
   20     3     3
   21    20    20
   22    19    19
   23     7     7
   24    15    15
   25     8     8
86
